* ENCODING=ISO-8859-1
NAME          CPLEX
ROWS
 N  obj1    
 G  c1      
 G  c2      
 G  c3      
 G  c4      
 G  c5      
 G  c6      
 G  c7      
 G  c8      
 G  c9      
 G  c10     
 G  c11     
 G  c12     
 G  c13     
 G  c14     
 G  c15     
 G  c16     
 G  c17     
 G  c18     
 G  c19     
 G  c20     
 G  c21     
 G  c22     
 G  c23     
 G  c24     
 G  c25     
 G  c26     
 G  c27     
 G  c28     
 G  c29     
 G  c30     
COLUMNS
    MARK0000  'MARKER'                 'INTORG'
    x1        obj1                            1
    x1        c10                           902
    x1        c19                           356
    x1        c29                           951
    x2        obj1                            1
    x2        c1                            426
    x2        c23                           994
    x3        obj1                            1
    x3        c2                            389
    x3        c7                            853
    x3        c26                           113
    x4        obj1                            1
    x4        c12                           780
    x4        c13                           346
    x4        c23                           631
    x4        c27                           984
    x4        c28                           477
    x5        obj1                            1
    x5        c7                            783
    x5        c10                           552
    x5        c13                           918
    x5        c14                           771
    x5        c24                           422
    x6        obj1                            1
    x6        c14                           161
    x7        obj1                            1
    x7        c15                           402
    x7        c27                           342
    x7        c28                           619
    x8        obj1                            1
    x8        c5                            904
    x8        c12                           518
    x8        c14                           128
    x9        obj1                            1
    x9        c24                           523
    x9        c30                           790
    x10       obj1                            1
    x10       c2                            276
    x10       c12                           814
    x10       c17                           251
    x11       obj1                            1
    x11       c3                            528
    x12       obj1                            1
    x12       c3                            934
    x12       c23                           204
    x13       obj1                            1
    x13       c6                            788
    x13       c18                           633
    x13       c28                           892
    x14       obj1                            1
    x14       c18                           208
    x15       obj1                            1
    x15       c5                            269
    x15       c16                           802
    x15       c29                           617
    x15       c30                           303
    x16       obj1                            1
    x16       c3                            301
    x17       obj1                            1
    x17       c20                           883
    x17       c23                           331
    x17       c28                           203
    x18       obj1                            1
    x19       obj1                            1
    x19       c17                           553
    x19       c18                           490
    x19       c21                           516
    x19       c28                           626
    x20       obj1                            1
    x20       c10                           818
    x20       c12                           910
    x20       c19                           820
    x21       obj1                            1
    x21       c3                            970
    x21       c24                           562
    x22       obj1                            1
    x22       c2                            530
    x22       c7                            772
    x22       c10                           142
    x22       c15                           249
    x23       obj1                            1
    x23       c8                            719
    x23       c22                           414
    x24       obj1                            1
    x24       c5                            924
    x24       c14                           950
    x25       obj1                            1
    x25       c6                            418
    x25       c14                           397
    x25       c18                           556
    x25       c19                           777
    x25       c24                           107
    x25       c27                           171
    x26       obj1                            1
    x26       c13                           244
    x26       c25                           118
    x27       obj1                            1
    x27       c3                            352
    x27       c13                           826
    x27       c19                           502
    x28       obj1                            1
    x29       obj1                            1
    x29       c2                            963
    x29       c5                            498
    x30       obj1                            1
    x30       c3                            622
    x30       c6                            429
    x30       c9                            743
    x30       c18                           122
    x30       c20                           453
    x30       c26                           989
    x31       obj1                            1
    x31       c24                           186
    x32       obj1                            1
    x32       c2                            389
    x32       c3                            689
    x32       c24                           709
    x33       obj1                            1
    x33       c9                            570
    x34       obj1                            1
    x34       c8                            488
    x34       c10                           685
    x34       c12                           173
    x35       obj1                            1
    x35       c2                            894
    x35       c5                            583
    x35       c11                           346
    x35       c16                           122
    x35       c23                           615
    x35       c27                           282
    x36       obj1                            1
    x36       c1                            946
    x36       c10                           901
    x36       c18                           903
    x37       obj1                            1
    x37       c10                           547
    x37       c14                           873
    x37       c24                           409
    x38       obj1                            1
    x38       c13                           847
    x38       c18                           147
    x38       c25                           459
    x39       obj1                            1
    x39       c8                            182
    x39       c24                           940
    x40       obj1                            1
    x40       c5                            699
    x40       c13                           248
    x40       c14                           733
    x40       c15                           565
    x40       c23                           247
    x40       c25                           825
    x40       c29                           539
    x41       obj1                            1
    x41       c24                           122
    x41       c28                           931
    x42       obj1                            1
    x42       c8                            803
    x42       c20                           506
    x42       c26                           947
    x42       c28                           431
    x43       obj1                            1
    x43       c15                           897
    x43       c21                           806
    x43       c27                           680
    x44       obj1                            1
    x44       c17                           521
    x44       c22                           640
    x45       obj1                            1
    x45       c6                            260
    x45       c18                           474
    x45       c21                           637
    x45       c30                           980
    x46       obj1                            1
    x46       c4                            702
    x46       c8                            398
    x46       c14                           150
    x46       c20                           316
    x46       c30                           289
    x47       obj1                            1
    x47       c7                            673
    x47       c15                           206
    x47       c19                           702
    x48       obj1                            1
    x48       c7                            632
    x48       c9                            159
    x49       obj1                            1
    x49       c17                           448
    x50       obj1                            1
    x50       c3                            466
    x50       c4                            951
    x50       c5                            759
    x51       obj1                            1
    x51       c6                            772
    x51       c22                           935
    x51       c23                           416
    x52       obj1                            1
    x53       obj1                            1
    x53       c7                            269
    x53       c15                           624
    x53       c17                           157
    x53       c25                           610
    x53       c30                           522
    x54       obj1                            1
    x54       c6                            855
    x54       c13                           994
    x54       c16                           839
    x54       c21                           264
    x54       c25                           145
    x54       c27                           282
    x55       obj1                            1
    x55       c4                            505
    x55       c9                            320
    x55       c27                           753
    x55       c28                           322
    x56       obj1                            1
    x56       c3                            743
    x56       c5                            592
    x56       c21                           378
    x57       obj1                            1
    x57       c11                           873
    x57       c14                           777
    x57       c16                           793
    x58       obj1                            1
    x58       c5                            151
    x58       c9                            950
    x58       c12                           636
    x58       c15                           211
    x58       c16                           313
    x58       c19                           629
    x58       c29                           771
    x59       obj1                            1
    x59       c1                            501
    x59       c6                            923
    x59       c11                           148
    x59       c16                           263
    x60       obj1                            1
    x60       c10                           893
    x60       c16                           670
    x60       c23                           564
    x60       c27                           833
    MARK0001  'MARKER'                 'INTEND'
RHS
    rhs       c1                            937
    rhs       c2                           1721
    rhs       c3                           2803
    rhs       c4                           1079
    rhs       c5                           2690
    rhs       c6                           2223
    rhs       c7                           1991
    rhs       c8                           1295
    rhs       c9                           1371
    rhs       c10                          2720
    rhs       c11                           684
    rhs       c12                          1916
    rhs       c13                          2212
    rhs       c14                          2470
    rhs       c15                          1577
    rhs       c16                          1901
    rhs       c17                           965
    rhs       c18                          1767
    rhs       c19                          1893
    rhs       c20                          1079
    rhs       c21                          1301
    rhs       c22                           995
    rhs       c23                          2001
    rhs       c24                          1990
    rhs       c25                          1079
    rhs       c26                          1025
    rhs       c27                          2164
    rhs       c28                          2251
    rhs       c29                          1439
    rhs       c30                          1442
BOUNDS
 LI bnd       x1        0
 LI bnd       x2        0
 LI bnd       x3        0
 LI bnd       x4        0
 LI bnd       x5        0
 LI bnd       x6        0
 LI bnd       x7        0
 LI bnd       x8        0
 LI bnd       x9        0
 LI bnd       x10       0
 LI bnd       x11       0
 LI bnd       x12       0
 LI bnd       x13       0
 LI bnd       x14       0
 LI bnd       x15       0
 LI bnd       x16       0
 LI bnd       x17       0
 LI bnd       x18       0
 LI bnd       x19       0
 LI bnd       x20       0
 LI bnd       x21       0
 LI bnd       x22       0
 LI bnd       x23       0
 LI bnd       x24       0
 LI bnd       x25       0
 LI bnd       x26       0
 LI bnd       x27       0
 LI bnd       x28       0
 LI bnd       x29       0
 LI bnd       x30       0
 LI bnd       x31       0
 LI bnd       x32       0
 LI bnd       x33       0
 LI bnd       x34       0
 LI bnd       x35       0
 LI bnd       x36       0
 LI bnd       x37       0
 LI bnd       x38       0
 LI bnd       x39       0
 LI bnd       x40       0
 LI bnd       x41       0
 LI bnd       x42       0
 LI bnd       x43       0
 LI bnd       x44       0
 LI bnd       x45       0
 LI bnd       x46       0
 LI bnd       x47       0
 LI bnd       x48       0
 LI bnd       x49       0
 LI bnd       x50       0
 LI bnd       x51       0
 LI bnd       x52       0
 LI bnd       x53       0
 LI bnd       x54       0
 LI bnd       x55       0
 LI bnd       x56       0
 LI bnd       x57       0
 LI bnd       x58       0
 LI bnd       x59       0
 LI bnd       x60       0
ENDATA
